
  22   10
  10   10   10   10   10   10   10   10   10   10

   0   0   0   0   0   0   0   0   0   0   0   4 2 4 5 6 
  10   0   0   0  10   0   0   0   0   0   0   1 3 
   5  10   0   0   0   0   0   0   0   0   0   2 13 7 
  10   0  10   0   0   0   0   0   0   0   0   2 13 8 
   6   0  10   0   0   0   0   0   0   0   0   1 7 
   3   0   0   0   0  10   0   0   0   0   0   2 13 9 
   6   0   0   0   0   0   0   0   0  10   0   1 8 
   5   0   0   0   0   0   0   0   0  10   0   1 9 
   7   0   0   0   0   0   0   0   0   0  10   2 21 10 
   5   0   0   0   0   0   0  10   0   0   0   2 12 11 
   1   0   0  10   0   0   0   0   0   0   0   3 17 15 14 
   9   0   0   0   0  10   0   0   0   0   0   3 20 17 16 
   2   0   0   0   0  10   0   0   0   0   0   2 19 14 
   7   0   0   0   0   0   0   0  10   0   0   2 20 18 
   8   0   0  10   0   0   0   0   0   0   0   1 16 
  10   0   0   0   0   0  10   0   0   0   0   1 18 
   8   0   0  10   0   0   0   0   0   0   0   1 19 
   1  10   0   0   0   0   0   0   0   0   0   1 22
   4   0   0   0   0   0   0   0   0  10   0   1 22
  10   0   0  10   0   0   0   0   0   0   0   1 22
   1   0   0   0   0   0   0   0  10   0   0   1 22
   0   0   0   0   0   0   0   0   0   0   0   0 
